27      4       
10      10      10      10      
0       0       0       0       0       12      2       3       4       5       6       7       8       9       10      11      14      15      
8       0       1       1       0       7       12      13      18      20      21      22      25      
9       0       0       5       1       5       12      13      20      21      22      
9       0       1       0       4       6       12      18      19      20      25      26      
10      1       2       0       0       7       16      17      18      19      20      21      24      
3       0       3       0       2       7       16      17      18      19      20      21      22      
7       3       0       1       0       4       12      19      23      24      
3       0       0       2       2       4       12      18      21      22      
1       0       3       0       3       5       16      17      18      20      21      
6       2       0       2       0       2       12      21      
9       0       2       3       0       2       12      18      
6       0       5       0       0       2       16      17      
7       0       3       2       0       2       19      23      
1       3       0       3       0       2       18      20      
10      4       2       0       0       2       18      19      
2       0       2       4       0       1       27      
10      0       5       2       0       1       27      
3       3       1       0       0       1       27      
6       0       3       0       3       1       27      
8       0       0       2       1       1       27      
6       0       2       3       0       1       27      
8       0       2       2       0       1       27      
3       3       1       0       0       1       27      
2       2       0       3       0       1       27      
10      2       0       0       2       1       27      
8       0       4       0       4       1       27      
0       0       0       0       0       0       
